1 1 -2 0
1 -1 -3 0
1 1 4 0
1 -2 -3 0
1 -2 -5 0
1 2 6 0
1 -7 -8 0
1 -7 3 0
1 -7 -5 0
1 -7 -9 0
1 -7 4 0
1 10 8 0
1 10 5 0
1 -10 -11 0
1 10 -4 0
1 5 12 0
1 5 13 0
1 -5 2 0
1 -5 -14 0
1 -5 15 0
1 5 16 0
1 -5 -17 0
1 -5 7 0
1 -5 1 0
1 4 -12 0
1 -4 13 0
1 4 -18 0
1 4 -2 0
1 -4 15 0
1 -4 16 0
1 4 -7 0
1 4 1 0
1 -3 19 0
1 3 -20 0
1 -3 10 0
1 3 21 0
1 -3 22 0
1 -3 1 0
1 -6 12 0
1 6 -10 0
1 -6 2 0
1 -6 -3 0
1 6 -15 0
1 -6 22 0
1 -6 1 0
1 -17 23 0
1 17 18 0
1 -17 5 0
1 17 -11 0
1 -17 22 0
1 -18 -23 0
1 18 8 0
1 -18 11 0
1 -18 -24 0
1 -18 -17 0
1 -18 4 0
1 -16 23 0
1 16 25 0
1 -16 26 0
1 16 5 0
1 16 -24 0
1 16 4 0
1 -13 8 0
1 13 19 0
1 13 -5 0
1 -13 -11 0
1 -13 -24 0
1 13 27 0
1 13 4 0
1 24 28 0
1 -24 -29 0
1 -24 -10 0
1 -24 30 0
1 -24 -31 0
1 -24 -32 0
1 -24 16 0
1 -8 28 0
1 -8 -33 0
1 8 -30 0
1 8 31 0
1 8 -24 0
1 -8 -16 0
1 8 17 0
1 -8 -7 0
1 -8 34 0
1 11 -23 0
1 -11 -35 0
1 -11 13 0
1 -11 -18 0
1 -11 -10 0
1 -11 -33 0
1 -11 36 0
1 -11 37 0
1 -11 -17 0
1 11 -7 0
1 -11 -34 0
1 -23 12 0
1 -23 -18 0
1 -23 -33 0
1 23 11 0
1 -23 36 0
1 23 15 0
1 23 7 0
1 -31 29 0
1 31 26 0
1 -31 -24 0
1 -31 -27 0
1 -29 8 0
1 29 -12 0
1 29 -26 0
1 29 31 0
1 29 38 0
1 -30 -28 0
1 30 25 0
1 28 35 0
1 -28 30 0
1 28 27 0
1 28 -38 0
1 38 -28 0
1 -38 26 0
1 -38 -30 0
1 38 -16 0
1 -38 -39 0
1 -38 40 0
1 26 41 0
1 -26 -30 0
1 -26 31 0
1 26 -16 0
1 26 38 0
1 -26 40 0
1 -27 29 0
1 27 -41 0
1 -27 31 0
1 27 -16 0
1 27 -42 0
1 -25 28 0
1 -25 29 0
1 25 -13 0
1 -25 43 0
1 25 -41 0
1 25 -44 0
1 25 33 0
1 -25 30 0
1 -25 31 0
1 -25 16 0
1 25 27 0
1 -25 -42 0
1 25 34 0
1 45 46 0
1 45 -47 0
1 -45 48 0
1 45 49 0
1 50 46 0
1 9 -46 0
1 9 51 0
1 9 -52 0
1 -9 -48 0
1 -9 -53 0
1 -9 -7 0
1 -54 -46 0
1 -54 47 0
1 -54 52 0
1 -54 48 0
1 -54 -49 0
1 -54 -55 0
1 54 -53 0
1 -54 -9 0
1 47 -19 0
1 47 -20 0
1 47 54 0
1 47 -50 0
1 -47 21 0
1 49 19 0
1 -49 54 0
1 -49 50 0
1 49 -21 0
1 -49 22 0
1 -49 9 0
1 -46 56 0
1 46 9 0
1 -46 45 0
1 48 46 0
1 -48 -54 0
1 -48 57 0
1 -48 -9 0
1 -48 45 0
1 22 -47 0
1 22 51 0
1 -22 -20 0
1 -22 -52 0
1 -22 3 0
1 -22 55 0
1 22 53 0
1 -22 -6 0
1 -20 -51 0
1 -20 -18 0
1 -20 52 0
1 -20 3 0
1 -20 49 0
1 20 -55 0
1 20 -22 0
1 -20 6 0
1 -21 47 0
1 -21 19 0
1 -21 51 0
1 21 52 0
1 -21 58 0
1 -21 3 0
1 -21 53 0
1 -21 -59 0
1 -21 -60 0
1 21 -6 0
1 -19 47 0
1 19 51 0
1 19 52 0
1 -19 58 0
1 19 -49 0
1 -19 55 0
1 19 21 0
1 -19 59 0
1 52 53 0
1 52 19 0
1 52 -20 0
1 -52 -61 0
1 -52 -54 0
1 52 -62 0
1 52 -36 0
1 -52 15 0
1 -52 21 0
1 53 -63 0
1 -53 35 0
1 -53 12 0
1 53 20 0
1 53 36 0
1 53 -21 0
1 53 -22 0
1 53 9 0
1 51 -63 0
1 -51 64 0
1 51 20 0
1 -51 62 0
1 51 55 0
1 -51 21 0
1 -51 9 0
1 -55 54 0
1 -55 -21 0
1 -55 22 0
1 -15 23 0
1 15 12 0
1 -15 -52 0
1 15 65 0
1 -15 -5 0
1 -15 -31 0
1 -15 -53 0
1 -15 -59 0
1 -15 4 0
1 12 -23 0
1 -12 29 0
1 12 52 0
1 -12 -58 0
1 -12 3 0
1 -12 -11 0
1 -12 -15 0
1 -12 -53 0
1 -12 59 0
1 -12 4 0
1 36 -66 0
1 36 23 0
1 36 -58 0
1 -36 -67 0
1 36 -14 0
1 36 11 0
1 -36 30 0
1 36 53 0
1 36 59 0
1 -36 60 0
1 -36 -68 0
1 -35 -66 0
1 35 -23 0
1 35 -52 0
1 -35 67 0
1 -35 14 0
1 -35 11 0
1 -35 53 0
1 -35 60 0
1 -35 68 0
1 -65 -35 0
1 -65 19 0
1 -65 -69 0
1 65 -70 0
1 -65 15 0
1 -65 21 0
1 60 12 0
1 -60 19 0
1 60 65 0
1 60 69 0
1 -60 -71 0
1 60 -21 0
1 -60 -72 0
1 60 -42 0
1 60 -34 0
1 58 -63 0
1 -58 35 0
1 -58 12 0
1 -58 -19 0
1 58 69 0
1 -58 -73 0
1 58 62 0
1 -58 -15 0
1 -58 21 0
1 58 -59 0
1 -58 72 0
1 -58 -74 0
1 -59 -12 0
1 59 -19 0
1 -59 69 0
1 -59 -62 0
1 -59 36 0
1 59 -15 0
1 -59 -21 0
1 59 -72 0
1 -59 74 0
1 33 23 0
1 33 -25 0
1 33 -65 0
1 -33 -67 0
1 -33 11 0
1 -33 -14 0
1 -33 34 0
1 34 8 0
1 -34 25 0
1 -34 -65 0
1 34 33 0
1 34 14 0
1 -34 -27 0
1 -34 68 0
1 44 -25 0
1 -44 -37 0
1 -44 -32 0
1 -44 -27 0
1 -44 60 0
1 -44 68 0
1 42 44 0
1 42 68 0
1 42 -60 0
1 -42 74 0
1 14 -75 0
1 -14 76 0
1 14 -5 0
1 -14 -77 0
1 -14 40 0
1 -14 42 0
1 -66 35 0
1 -66 -75 0
1 66 76 0
1 66 41 0
1 -66 14 0
1 66 36 0
1 66 -77 0
1 -66 -78 0
1 -66 -40 0
1 -66 42 0
1 -66 34 0
1 -67 75 0
1 -67 79 0
1 67 -44 0
1 -67 -3 0
1 67 -77 0
1 67 -80 0
1 67 -42 0
1 67 -68 0
1 67 -34 0
1 -68 35 0
1 -68 -75 0
1 -68 -69 0
1 68 -44 0
1 -68 33 0
1 68 6 0
1 68 77 0
1 -68 -72 0
1 -68 42 0
1 -68 34 0
1 -41 66 0
1 41 25 0
1 -41 -26 0
1 41 -69 0
1 -41 14 0
1 -41 -37 0
1 -41 27 0
1 41 -38 0
1 -41 40 0
1 -40 81 0
1 -40 -25 0
1 -40 41 0
1 -40 -14 0
1 -40 38 0
1 -76 66 0
1 -76 -81 0
1 76 82 0
1 76 79 0
1 76 -14 0
1 76 -37 0
1 76 -83 0
1 76 39 0
1 78 43 0
1 -78 -82 0
1 78 76 0
1 78 -37 0
1 -78 32 0
1 -78 83 0
1 -78 39 0
1 78 -80 0
1 32 -81 0
1 -32 84 0
1 32 85 0
1 -32 -41 0
1 32 -24 0
1 32 -86 0
1 32 87 0
1 -32 -40 0
1 -32 -42 0
1 -81 -84 0
1 -81 -76 0
1 -81 32 0
1 81 87 0
1 81 -78 0
1 81 40 0
1 37 -88 0
1 37 89 0
1 37 41 0
1 37 44 0
1 37 90 0
1 -37 -77 0
1 -37 -40 0
1 -37 42 0
1 88 -23 0
1 -88 -89 0
1 88 -41 0
1 -88 -42 0
1 85 43 0
1 85 82 0
1 85 83 0
1 85 -32 0
1 -85 87 0
1 85 39 0
1 87 81 0
1 -87 -85 0
1 -87 83 0
1 87 39 0
1 -84 -81 0
1 -84 82 0
1 -84 -86 0
1 -84 -39 0
1 -86 81 0
1 -86 -43 0
1 -39 84 0
1 -39 -76 0
1 39 -87 0
1 -39 -38 0
1 -39 78 0
1 -82 -84 0
1 82 26 0
1 82 86 0
1 -82 87 0
1 82 -39 0
1 83 -84 0
1 -83 43 0
1 83 85 0
1 83 76 0
1 83 -86 0
1 83 -27 0
1 -83 87 0
1 83 -78 0
1 43 -25 0
1 43 85 0
1 43 86 0
1 -43 78 0
1 -62 -63 0
1 -62 91 0
1 -62 -51 0
1 -62 -52 0
1 62 57 0
1 62 -92 0
1 62 -53 0
1 62 59 0
1 63 -56 0
1 63 -51 0
1 -63 -57 0
1 -63 92 0
1 63 -55 0
1 -63 -53 0
1 -63 59 0
1 63 34 0
1 -73 -56 0
1 73 91 0
1 73 -58 0
1 73 44 0
1 -73 -92 0
1 73 -93 0
1 73 -59 0
1 74 56 0
1 -74 -91 0
1 -74 64 0
1 -74 -61 0
1 -74 -73 0
1 74 94 0
1 -74 -59 0
1 -74 42 0
1 -91 63 0
1 -91 47 0
1 -91 -69 0
1 91 -73 0
1 91 -80 0
1 91 74 0
1 92 -63 0
1 -92 73 0
1 92 -49 0
1 92 -80 0
1 -56 63 0
1 56 -46 0
1 56 -73 0
1 56 57 0
1 -56 74 0
1 57 56 0
1 57 73 0
1 -57 -62 0
1 69 -91 0
1 -69 64 0
1 69 61 0
1 69 58 0
1 -69 41 0
1 -69 67 0
1 69 94 0
1 69 93 0
1 -69 -59 0
1 -69 -72 0
1 -72 91 0
1 -72 64 0
1 -72 -58 0
1 -72 60 0
1 72 67 0
1 -72 -92 0
1 72 94 0
1 72 93 0
1 -72 68 0
1 79 -91 0
1 -79 -64 0
1 79 61 0
1 79 70 0
1 -79 67 0
1 -79 -94 0
1 80 -61 0
1 80 79 0
1 -80 70 0
1 -80 -92 0
1 -80 -94 0
1 80 -93 0
1 80 71 0
1 -80 -68 0
1 -61 93 0
1 -61 52 0
1 61 -75 0
1 61 79 0
1 61 -69 0
1 -61 -73 0
1 -61 -77 0
1 61 80 0
1 61 -72 0
1 61 -74 0
1 -93 -75 0
1 93 -61 0
1 -93 53 0
1 93 77 0
1 93 -80 0
1 93 -72 0
1 -93 -74 0
1 -64 -51 0
1 64 69 0
1 -64 -73 0
1 64 94 0
1 64 -80 0
1 64 -72 0
1 64 -74 0
1 94 64 0
1 -94 79 0
1 -94 -69 0
1 -94 55 0
1 94 80 0
1 -94 -72 0
1 -75 88 0
1 75 93 0
1 -75 85 0
1 75 61 0
1 -75 -95 0
1 75 -67 0
1 75 14 0
1 75 77 0
1 -75 -96 0
1 -75 68 0
1 -77 66 0
1 77 88 0
1 77 75 0
1 -77 61 0
1 77 -95 0
1 77 -37 0
1 -77 -87 0
1 77 -96 0
1 -77 68 0
1 -89 -88 0
1 -89 84 0
1 89 -61 0
1 89 -70 0
1 -89 93 0
1 89 -96 0
1 89 71 0
1 -90 -88 0
1 90 -61 0
1 -90 70 0
1 -90 71 0
1 -70 79 0
1 -70 65 0
1 -70 90 0
1 -71 -75 0
1 -71 -79 0
1 71 -70 0
1 -71 90 0
1 71 -77 0
1 -71 -60 0
1 -95 75 0
1 -95 58 0
1 95 79 0
1 95 -90 0
1 95 -77 0
1 -95 -80 0
1 96 -75 0
1 -96 -79 0
1 96 95 0
1 96 77 0
1 -96 -59 0
